This is Ipopt version 3.10.0, running with linear solver ma27.

Number of nonzeros in equality constraint Jacobian...:        2
Number of nonzeros in inequality constraint Jacobian.:        4
Number of nonzeros in Lagrangian Hessian.............:        0

Total number of variables............................:        2
                     variables with only lower bounds:        0
                variables with lower and upper bounds:        2
                     variables with only upper bounds:        0
Total number of equality constraints.................:        1
Total number of inequality constraints...............:        2
        inequality constraints with only lower bounds:        0
   inequality constraints with lower and upper bounds:        0
        inequality constraints with only upper bounds:        2

iter    objective    inf_pr   inf_du lg(mu)  ||d||  lg(rg) alpha_du alpha_pr  ls
   0  9.0000000e+04 8.75e-01 3.00e+02   0.0 0.00e+00    -  0.00e+00 0.00e+00   0
   1  8.9647334e+04 8.82e-01 5.15e+03   1.8 3.54e+02    -  7.04e-01 2.88e-03h  1
   2  8.9737797e+04 8.80e-01 5.68e+03  -3.9 2.16e+02    -  2.50e-03 2.27e-03h  1
   3  1.1507103e+05 4.66e-01 4.04e+04   1.8 2.19e+02    -  6.10e-01 1.00e+00h  1
   4  1.4267108e+05 1.83e-01 6.13e+02   1.9 5.14e+01    -  1.00e+00 7.25e-01h  1
   5  1.6543942e+05 2.00e-02 1.27e+02   0.7 2.80e+01    -  9.99e-01 1.00e+00h  1
   6  1.6803254e+05 4.27e-03 7.82e+03  -0.6 3.81e+00    -  9.98e-01 7.97e-01h  1
   7  1.6874763e+05 1.40e-05 1.42e-01  -2.3 8.38e-01    -  1.00e+00 1.00e+00h  1
   8  1.6875000e+05 8.32e-09 2.64e-04  -8.3 2.96e-03    -  1.00e+00 9.99e-01h  1

Number of Iterations....: 8

                                   (scaled)                 (unscaled)
Objective...............:   1.6874999690798370e+05    1.6874999690798370e+05
Dual infeasibility......:   2.6406129151152640e-04    2.6406129151152640e-04
Constraint violation....:   8.3230599581918339e-09    8.3230599581918339e-09
Complementarity.........:   2.4659447064230804e-06    2.4659447064230804e-06
Overall NLP error.......:   7.0416294971762466e-07    2.6406129151152640e-04


Number of objective function evaluations             = 9
Number of objective gradient evaluations             = 9
Number of equality constraint evaluations            = 9
Number of inequality constraint evaluations          = 9
Number of equality constraint Jacobian evaluations   = 9
Number of inequality constraint Jacobian evaluations = 9
Number of Lagrangian Hessian evaluations             = 0
Total CPU secs in IPOPT (w/o function evaluations)   =      0.006
Total CPU secs in NLP function evaluations           =      0.000

EXIT: Optimal Solution Found.
